&CONTROL
/
&SYSTEM
   ntyp             = 4
   nat              = 48
   ibrav            = 0
/
&ELECTRONS
/
&IONS
/
&CELL
/
&FCP
/
&RISM
/
ATOMIC_SPECIES
O 15.999 O.pse-n-kjpaw_psl.1.0.0.UPF
N 14.007 N.pse-n-kjpaw_psl.1.0.0.UPF
C 12.011 C.pse-n-kjpaw_psl.1.0.0.UPF
H 1.008 H.pse-n-kjpaw_psl.1.0.0.UPF

K_POINTS gamma

CELL_PARAMETERS angstrom
20.00000000000000 0.00000000000000 0.00000000000000
0.00000000000000 20.00000000000000 0.00000000000000
0.00000000000000 0.00000000000000 20.00000000000000

ATOMIC_POSITIONS angstrom
O 4.6743000000 7.3516500000 8.9000500000  
N 10.6739000000 10.6666500000 10.2064500000  
C 7.9709000000 11.0439500000 9.1296500000  
C 8.5799000000 11.9481500000 10.2451500000  
C 9.5589000000 11.0927500000 11.0793500000  
C 9.1520000000 10.5476500000 8.2492500000  
C 8.7941000000 9.9598500000 11.7973500000  
C 7.2808000000 9.8118500000 9.7363500000  
C 10.2636000000 9.8623500000 9.0546500000  
C 7.7028000000 9.3009500000 10.9844500000  
C 7.0262000000 11.8840500000 8.2419500000  
C 7.5397000000 12.6632500000 11.1227500000  
C 11.7711000000 10.0343500000 10.9318500000  
C 6.2639000000 9.1268500000 9.0462500000  
C 7.0806000000 8.1607500000 11.5213500000  
C 5.6592000000 7.9911500000 9.5886500000  
C 6.0644000000 7.5103500000 10.8274500000  
C 12.9754000000 9.8543500000 10.0548500000  
C 13.5978000000 8.7090500000 9.7152500000  
C 14.8054000000 8.5997500000 8.8280500000  
C 13.0939000000 7.3881500000 10.2357500000  
H 9.1612000000 12.7507500000 9.7651500000  
H 9.9945000000 11.7407500000 11.8523500000  
H 9.5892000000 11.4043500000 7.7172500000  
H 8.7957000000 9.8547500000 7.4757500000  
H 8.3148000000 10.3879500000 12.6886500000  
H 9.4815000000 9.1942500000 12.1712500000  
H 9.9444000000 8.8594500000 9.3634500000  
H 11.0950000000 9.7168500000 8.3551500000  
H 7.4981000000 12.8302500000 7.9521500000  
H 6.7703000000 11.3651500000 7.3113500000  
H 6.0875000000 12.1194500000 8.7557500000  
H 8.0326000000 13.1937500000 11.9448500000  
H 6.9908000000 13.4121500000 10.5426500000  
H 6.8057000000 11.9789500000 11.5572500000  
H 12.0843000000 10.6917500000 11.7534500000  
H 11.4612000000 9.0987500000 11.4014500000  
H 5.9327000000 9.4637500000 8.0677500000  
H 7.3921000000 7.7732500000 12.4886500000  
H 5.6017000000 6.6286500000 11.2621500000  
H 13.3895000000 10.7798500000 9.6547500000  
H 4.3704000000 6.5878500000 9.4200500000  
H 15.6296000000 8.1174500000 9.3633500000  
H 15.1515000000 9.5849500000 8.4984500000  
H 14.5732000000 8.0110500000 7.9348500000  
H 13.6275000000 7.1145500000 11.1515500000  
H 13.2700000000 6.5983500000 9.4961500000  
H 12.0188000000 7.3716500000 10.4288500000  

