&CONTROL
  calculation = 'relax',
  prefix = 'pentazocine',
  outdir = './out/',
  pseudo_dir = './pseudo/',
  tprnfor = .true.,
  tstress = .true.,
  verbosity = 'high',
  etot_conv_thr = 1.0d-5,
  forc_conv_thr = 1.0d-4,
/

&SYSTEM
  ibrav = 0,
  nat = 48,
  ntyp = 4,
  ecutwfc = 10.0,
  ecutrho = 40.0,
  occupations = 'fixed',
  nosym = .true.,
/

&ELECTRONS
  conv_thr = 1.0d-8,
  electron_maxstep = 100,
  mixing_beta = 0.4,
/

&IONS
  ion_dynamics = 'bfgs',
/

ATOMIC_SPECIES
O  15.9990 O.pbe-n-kjpaw_psl.1.0.0.UPF
N  14.0070 N.pbe-n-kjpaw_psl.1.0.0.UPF
C  12.0110 C.pbe-n-kjpaw_psl.1.0.0.UPF
H  1.0080 H.pbe-n-kjpaw_psl.1.0.0.UPF

CELL_PARAMETERS angstrom
   31.259200   0.000000   0.000000
    0.000000  26.824300   0.000000
    0.000000   0.000000  25.377300

K_POINTS automatic
1 1 1 0 0 0
ATOMIC_POSITIONS angstrom
O   10.303900  10.763800  11.588700
N   16.303500  14.078800  12.895100
C   13.600500  14.456100  11.818300
C   14.209500  15.360300  12.933800
C   15.188500  14.504900  13.768000
C   14.781600  13.959800  10.937900
C   14.423700  13.372000  14.486000
C   12.910400  13.224000  12.425000
C   15.893200  13.274500  11.743300
C   13.332400  12.713100  13.673100
C   12.655800  15.296200  10.930600
C   13.169300  16.075400  13.811400
C   17.400700  13.446500  13.620500
C   11.893500  12.539000  11.734900
C   12.710200  11.572900  14.210000
C   11.288800  11.403300  12.277300
C   11.694000  10.922500  13.516100
C   18.605000  13.266500  12.743500
C   19.227400  12.121200  12.403900
C   20.435000  12.011900  11.516700
C   18.723500  10.800300  12.924400
H   14.790800  16.162900  12.453800
H   15.624100  15.152900  14.541000
H   15.218800  14.816500  10.405900
H   14.425300  13.266900  10.164400
H   13.944400  13.800100  15.377300
H   15.111100  12.606400  14.859900
H   15.574000  12.271600  12.052100
H   16.724600  13.129000  11.043800
H   13.127700  16.242400  10.640800
H   12.399900  14.777300  10.000000
H   11.717100  15.531600  11.444400
H   13.662200  16.605900  14.633500
H   12.620400  16.824300  13.231300
H   12.435300  15.391100  14.245900
H   17.713900  14.103900  14.442100
H   17.090800  12.510900  14.090100
H   11.562300  12.875900  10.756400
H   13.021700  11.185400  15.177300
H   11.231300  10.040800  13.950800
H   19.019100  14.192000  12.343400
H   10.000000  10.000000  12.108700
H   21.259200  11.529600  12.052000
H   20.781100  12.997100  11.187100
H   20.202800  11.423200  10.623500
H   19.257100  10.526700  13.840200
H   18.899600  10.010500  12.184800
H   17.648400  10.783800  13.117500

